 &GLOBAL
   PRINT_LEVEL  MEDIUM
   PROJECT_NAME P4O10
   RUN_TYPE  GEO_OPT
   SAVE_MEM  T
 &END GLOBAL
 &MOTION
   &GEO_OPT
     OPTIMIZER  BFGS
     MAX_ITER  1500
     MAX_FORCE     5.0000000000000002E-05
     STEP_START_VAL  1
   &END GEO_OPT
 &END MOTION
 &FORCE_EVAL
   METHOD  QS
   &DFT
     UKS  T
     CHARGE  0
     &SCF
       MAX_SCF  200
       EPS_SCF      1.0000000000000000E-07
       SCF_GUESS  ATOMIC
       &OT  T
         MINIMIZER  DIIS
         PRECONDITIONER  FULL_ALL
       &END OT
     &END SCF
     &QS
       EXTRAPOLATION  PS
       EXTRAPOLATION_ORDER  4
       METHOD  GAPW
     &END QS
     &MGRID
       CUTOFF         3.0000000000000000E+02
       REL_CUTOFF     3.0000000000000000E+01
     &END MGRID
     &XC
       &XC_FUNCTIONAL  NO_SHORTCUT
         &PBE  T
         &END PBE
       &END XC_FUNCTIONAL
       &VDW_POTENTIAL
         POTENTIAL_TYPE  PAIR_POTENTIAL
         &PAIR_POTENTIAL
           R_CUTOFF     1.2000000000000000E+01
           TYPE  DFTD3
           PARAMETER_FILE_NAME dftd3.dat
           REFERENCE_FUNCTIONAL PBE
           CALCULATE_C9_TERM  F
         &END PAIR_POTENTIAL
       &END VDW_POTENTIAL
     &END XC
     &POISSON
       POISSON_SOLVER  MULTIPOLE
       PERIODIC  NONE
       &MULTIPOLE
         RCUT     8.0000000000000000E+00
       &END MULTIPOLE
     &END POISSON
   &END DFT
   &SUBSYS
     &CELL
       A     2.7000000000000000E+01    0.0000000000000000E+00    0.0000000000000000E+00
       B     0.0000000000000000E+00    2.7000000000000000E+01    0.0000000000000000E+00
       C     0.0000000000000000E+00    0.0000000000000000E+00    2.7000000000000000E+01
       PERIODIC  NONE
       MULTIPLE_UNIT_CELL  1 1 1
     &END CELL
     &COORD
O     0.08712    0.17183   -0.90992
O     0.91956   -2.58122   -0.80311
P     1.69950    0.57439   -1.42059
P     2.49643   -2.06044   -1.31891
O     3.12111   -3.22765   -2.12752
O     2.40421   -0.68954   -2.38467
P     0.27922   -1.23551    0.09206
O    -1.13595   -1.64337    0.58035
O     1.22915   -0.89332    1.50714
O     2.71331    0.99828   -0.07356
O     3.54645   -1.75442    0.03264
O     1.59036    1.83187   -2.32198
P     2.79233   -0.44489    0.89188
O     3.68965   -0.12513    2.11661
       UNIT angstrom
       SCALED  F
     &END COORD
     &KIND C
       BASIS_SET DZVP-MOLOPT-GTH
       POTENTIAL GTH-PBE-q4
     &END KIND
     &KIND O
       BASIS_SET DZVP-MOLOPT-GTH
       POTENTIAL GTH-PBE-q6
     &END KIND
     &KIND H
       BASIS_SET TZVP-MOLOPT-GTH
       POTENTIAL GTH-PBE-q1
     &END KIND
     &KIND N
       BASIS_SET DZVP-MOLOPT-GTH
       POTENTIAL GTH-PBE-q5
     &END KIND
     &KIND P
       BASIS_SET DZVP-MOLOPT-GTH
       POTENTIAL GTH-PBE-q5
     &END KIND
     &KIND S
       BASIS_SET DZVP-MOLOPT-GTH
       POTENTIAL GTH-PBE-q6
     &END KIND
     &TOPOLOGY
       MULTIPLE_UNIT_CELL  1 1 1
       &CENTER_COORDINATES  T
       &END CENTER_COORDINATES
     &END TOPOLOGY
   &END SUBSYS
 &END FORCE_EVAL
