 &GLOBAL
   PRINT_LEVEL  MEDIUM
   PROJECT_NAME P4O6
   RUN_TYPE  GEO_OPT
   SAVE_MEM  T
 &END GLOBAL
 &MOTION
   &GEO_OPT
     OPTIMIZER  BFGS
     MAX_ITER  1500
     MAX_FORCE     5.0000000000000002E-05
     STEP_START_VAL  1
   &END GEO_OPT
 &END MOTION
 &FORCE_EVAL
   METHOD  QS
   &DFT
     UKS  T
     CHARGE  0
     &SCF
       MAX_SCF  200
       EPS_SCF      1.0000000000000000E-07
       SCF_GUESS  ATOMIC
       &OT  T
         MINIMIZER  DIIS
         PRECONDITIONER  FULL_ALL
       &END OT
     &END SCF
     &QS
       EXTRAPOLATION  PS
       EXTRAPOLATION_ORDER  4
       METHOD  GAPW
     &END QS
     &MGRID
       CUTOFF         3.0000000000000000E+02
       REL_CUTOFF     3.0000000000000000E+01
     &END MGRID
     &XC
       &XC_FUNCTIONAL  NO_SHORTCUT
         &PBE  T
         &END PBE
       &END XC_FUNCTIONAL
       &VDW_POTENTIAL
         POTENTIAL_TYPE  PAIR_POTENTIAL
         &PAIR_POTENTIAL
           R_CUTOFF     1.2000000000000000E+01
           TYPE  DFTD3
           PARAMETER_FILE_NAME dftd3.dat
           REFERENCE_FUNCTIONAL PBE
           CALCULATE_C9_TERM  F
         &END PAIR_POTENTIAL
       &END VDW_POTENTIAL
     &END XC
     &POISSON
       POISSON_SOLVER  MULTIPOLE
       PERIODIC  NONE
       &MULTIPOLE
         RCUT     8.0000000000000000E+00
       &END MULTIPOLE
     &END POISSON
   &END DFT
   &SUBSYS
     &CELL
       A     2.7000000000000000E+01    0.0000000000000000E+00    0.0000000000000000E+00
       B     0.0000000000000000E+00    2.7000000000000000E+01    0.0000000000000000E+00
       C     0.0000000000000000E+00    0.0000000000000000E+00    2.7000000000000000E+01
       PERIODIC  NONE
       MULTIPLE_UNIT_CELL  1 1 1
     &END CELL
     &COORD
O     0.16321    0.12932   -0.89012
O     0.95892   -2.50307   -0.78775
P     1.69000    0.68906   -1.50364
P     2.55342   -2.16675   -1.39278
O     2.37860   -0.69436   -2.29965
P     0.14877   -1.27368    0.13611
O     1.25408   -0.88965    1.42122
O     2.67458    0.91930   -0.08980
O     3.47056   -1.71246    0.01175
P     2.87390   -0.41611    1.00451
       UNIT angstrom
       SCALED  F
     &END COORD
     &KIND C
       BASIS_SET DZVP-MOLOPT-GTH
       POTENTIAL GTH-PBE-q4
     &END KIND
     &KIND O
       BASIS_SET DZVP-MOLOPT-GTH
       POTENTIAL GTH-PBE-q6
     &END KIND
     &KIND H
       BASIS_SET TZVP-MOLOPT-GTH
       POTENTIAL GTH-PBE-q1
     &END KIND
     &KIND N
       BASIS_SET DZVP-MOLOPT-GTH
       POTENTIAL GTH-PBE-q5
     &END KIND
     &KIND P
       BASIS_SET DZVP-MOLOPT-GTH
       POTENTIAL GTH-PBE-q5
     &END KIND
     &KIND S
       BASIS_SET DZVP-MOLOPT-GTH
       POTENTIAL GTH-PBE-q6
     &END KIND
     &TOPOLOGY
       MULTIPLE_UNIT_CELL  1 1 1
       &CENTER_COORDINATES  T
       &END CENTER_COORDINATES
     &END TOPOLOGY
   &END SUBSYS
 &END FORCE_EVAL
